1 2 32
2 3 32
3 4 32
4 49 32
4 5 49
5 6 49
6 60 49
6 7 60
7 8 60
8 58 60
8 9 58
9 10 58
10 56 58
10 11 56
11 12 56
12 55 56
12 13 55
13 14 55
14 36 55
14 15 36
15 16 36
16 17 36
17 46 36
17 27 46
27 25 46
25 43 46
25 23 43
23 28 43
28 22 40
22 20 40
20 37 40
20 18 37
18 1 37
1 32 37
37 32 40
32 28 40
28 32 34
28 34 36
28 36 43
43 36 46
32 49 51
32 51 34
34 51 52
34 52 53
34 53 36
36 53 55
51 49 62
51 62 52
52 62 64
52 64 53
53 64 55
55 66 56
56 66 58
58 66 68
58 68 60
60 68 49
